347 584
2288 2513
9644 10051
10272 10568
14056 14807
16143 16445
17368 17745
18289 18546
22387 22612
23312 23585
30546 31068
39033 39623
39892 40206
40643 40871
43871 44075
47275 48007
63726 64730
71517 71738
72385 72692
82436 82824
